p ocr 740 795 2013
1 741
1 743
2 741
2 743
3 742
3 744
3 745
4 742
4 744
5 741
5 742
5 743
5 744
6 743
6 744
6 745
6 748
7 743
7 746
7 750
8 745
8 747
8 750
9 749
9 752
10 751
10 752
11 749
11 750
11 751
11 752
12 752
12 754
13 751
13 752
13 753
13 754
16 752
16 753
17 755
17 756
18 753
18 757
19 753
19 755
19 757
20 754
20 756
20 757
21 755
21 756
21 758
21 760
22 755
22 759
22 760
22 762
23 756
23 758
23 760
23 761
23 763
24 762
24 764
24 766
24 767
24 770
25 765
25 766
25 770
25 773
26 765
26 768
26 771
26 772
27 770
27 772
27 773
27 774
28 771
29 770
29 772
29 773
29 775
29 776
30 772
30 775
30 776
31 773
31 775
31 776
32 775
32 776
33 774
33 776
33 777
33 778
33 779
34 776
34 778
34 780
35 776
35 780
36 776
36 778
36 779
36 781
37 778
37 780
37 781
38 778
38 783
38 785
39 781
40 783
40 784
40 785
41 782
41 784
41 786
42 784
43 785
43 788
43 789
43 790
44 786
44 792
44 793
45 788
45 791
45 792
45 794
45 795
46 794
47 792
47 793
47 798
47 799
48 796
48 802
49 800
49 802
49 803
50 800
50 801
50 802
51 799
51 800
51 802
51 803
52 800
52 802
52 803
52 804
52 805
53 801
53 802
53 804
54 802
54 804
54 806
54 807
55 803
55 806
55 807
55 808
55 810
56 803
56 804
56 806
56 808
56 811
57 806
57 807
57 810
57 811
57 812
58 807
58 808
58 810
58 812
59 809
60 809
60 810
60 811
61 813
61 814
63 813
64 812
64 814
64 816
64 817
65 812
65 813
65 814
65 817
66 814
66 818
66 819
66 821
66 823
67 818
67 819
67 824
68 825
68 826
68 827
69 824
69 825
69 828
70 826
70 827
70 828
71 826
72 826
72 827
73 826
73 827
73 828
73 829
74 828
75 828
75 829
76 829
76 831
76 832
77 829
77 830
77 831
77 832
77 833
77 834
78 837
78 839
78 840
78 841
78 842
78 844
79 841
79 844
80 841
80 843
80 844
81 842
81 843
82 844
83 844
84 845
85 843
85 845
86 844
86 845
86 847
87 846
88 846
88 847
89 846
89 848
90 845
90 846
91 846
91 850
92 846
92 849
92 850
93 849
93 850
94 847
94 850
94 851
95 849
95 851
97 851
98 851
98 852
99 852
99 853
100 851
100 853
100 854
101 852
101 853
102 852
102 853
102 854
102 855
103 852
103 853
103 854
103 855
104 853
104 856
105 853
105 854
107 854
108 854
108 857
109 856
109 857
109 860
110 857
110 858
110 861
111 857
111 859
111 861
112 859
112 860
112 861
113 858
113 860
113 861
113 862
114 859
114 862
115 859
115 863
116 860
117 861
117 863
117 865
118 862
118 864
118 865
118 866
118 867
118 868
119 866
119 867
120 862
120 863
120 864
120 866
120 867
120 868
120 869
121 866
121 868
121 869
121 871
122 866
122 868
122 872
123 866
124 872
124 875
125 869
125 872
125 873
125 875
126 871
126 872
126 875
126 878
127 876
127 877
127 878
127 879
127 881
128 876
128 878
128 879
128 880
128 881
129 876
129 879
129 881
130 879
130 881
130 882
130 883
131 879
131 882
132 880
132 883
132 884
133 881
133 883
133 885
134 883
134 885
135 882
135 884
135 886
136 882
136 883
136 884
136 885
136 886
138 884
138 885
139 887
139 888
140 885
140 886
140 889
141 885
141 887
141 888
142 890
142 891
143 887
143 889
143 891
144 888
144 889
144 891
145 888
145 890
145 891
145 894
146 890
146 891
146 893
146 894
146 895
147 890
147 891
147 892
147 893
147 894
147 895
149 893
149 894
149 895
149 897
149 901
150 897
150 899
150 900
151 897
151 898
151 901
152 901
153 899
153 900
153 901
154 900
154 901
155 903
156 901
156 903
158 903
158 904
159 905
159 906
160 905
161 907
161 908
161 909
162 903
162 908
162 909
162 910
164 907
164 908
164 909
164 910
164 911
164 912
164 914
164 915
165 910
165 913
165 914
165 915
165 916
165 917
166 911
166 912
166 915
166 916
166 917
167 914
167 915
167 918
167 919
167 922
168 919
168 920
169 915
169 917
169 919
169 920
169 921
169 923
170 920
170 923
170 926
170 927
171 920
171 922
171 924
171 925
172 923
172 926
172 930
173 926
173 927
173 929
174 928
174 930
174 931
174 932
175 927
175 928
175 929
175 930
175 931
175 933
176 928
176 929
176 931
176 933
177 928
177 929
177 930
177 934
178 934
179 932
179 934
179 936
180 931
180 932
180 933
180 936
181 933
181 934
181 936
181 937
181 939
182 933
182 935
182 936
182 937
182 938
182 939
183 941
183 942
184 940
184 942
184 943
184 944
185 942
185 946
186 946
187 944
187 945
187 946
188 946
188 947
189 949
190 947
190 949
191 950
192 949
192 950
192 951
193 951
193 952
194 948
194 949
195 950
195 951
196 950
196 951
196 952
196 953
197 952
197 953
197 954
197 955
198 952
198 955
199 953
199 954
199 955
200 955
201 954
201 955
201 957
202 955
203 955
203 956
203 957
204 955
204 959
204 960
205 958
205 959
205 960
206 960
206 961
207 957
207 958
207 959
209 960
210 961
210 962
210 963
210 965
211 962
212 961
212 963
212 965
213 961
213 962
213 963
213 964
213 965
213 968
214 963
214 964
214 970
215 965
215 966
215 967
215 968
215 971
216 968
216 969
217 968
217 969
218 969
218 971
218 972
219 970
219 971
219 973
220 971
220 973
221 974
222 973
223 974
224 975
225 973
225 975
225 976
226 975
227 974
227 975
227 976
228 975
228 976
230 976
230 977
231 977
231 979
232 975
232 978
233 977
234 977
234 979
234 980
235 978
235 980
235 981
235 982
236 981
236 982
237 979
237 983
238 979
238 980
239 980
239 981
239 982
240 981
240 982
240 983
240 984
242 985
243 983
243 984
244 984
244 987
245 984
245 987
246 984
246 985
246 986
246 987
247 985
248 987
248 988
248 990
248 992
249 989
249 991
249 994
249 995
250 991
250 992
250 997
251 992
251 993
251 997
252 999
252 1000
253 998
253 999
253 1000
253 1001
254 996
254 997
254 999
254 1000
254 1001
254 1002
254 1003
255 998
256 1001
257 1001
257 1005
258 1003
259 1002
259 1005
260 1004
260 1005
261 1004
261 1007
262 1005
262 1007
262 1008
263 1006
263 1007
263 1008
264 1005
264 1006
264 1007
264 1008
265 1005
265 1006
265 1007
265 1008
266 1007
266 1009
266 1010
266 1012
267 1007
267 1008
267 1009
267 1010
267 1012
268 1008
268 1011
268 1013
270 1012
270 1013
271 1011
271 1014
271 1015
271 1016
272 1012
272 1013
272 1015
273 1013
273 1017
274 1014
274 1015
274 1017
276 1015
276 1016
276 1018
276 1019
277 1015
277 1017
277 1018
278 1016
278 1017
278 1019
278 1020
279 1016
279 1017
280 1018
281 1018
281 1021
282 1018
282 1020
282 1021
282 1023
283 1021
283 1022
283 1023
284 1024
285 1021
285 1022
285 1025
286 1025
286 1026
286 1027
287 1026
287 1027
288 1023
288 1024
288 1025
288 1026
288 1027
288 1028
289 1025
289 1027
289 1028
290 1026
290 1028
291 1025
291 1026
291 1030
291 1032
292 1028
292 1029
292 1030
292 1032
293 1029
294 1030
294 1031
294 1032
295 1030
295 1031
295 1034
295 1035
296 1031
296 1032
296 1033
296 1034
296 1035
297 1035
298 1034
298 1036
298 1037
299 1034
300 1034
300 1037
301 1035
301 1036
301 1037
302 1036
302 1037
302 1040
303 1036
303 1037
303 1038
303 1041
304 1040
304 1042
305 1037
305 1039
305 1040
305 1041
305 1042
306 1041
306 1042
306 1043
306 1046
306 1047
307 1041
307 1042
307 1045
308 1044
308 1046
308 1049
308 1051
309 1044
309 1046
309 1048
309 1049
309 1050
310 1047
310 1050
310 1053
311 1050
311 1052
311 1056
312 1051
312 1052
313 1051
313 1053
313 1055
313 1058
313 1059
314 1055
314 1056
314 1059
314 1061
315 1056
315 1057
315 1058
315 1059
316 1060
317 1061
317 1066
317 1067
318 1063
318 1064
318 1066
319 1064
319 1065
319 1066
319 1067
319 1068
320 1065
320 1069
320 1070
320 1071
321 1066
321 1067
321 1068
321 1070
321 1071
322 1068
322 1069
322 1071
322 1073
323 1069
324 1074
325 1074
325 1076
326 1072
326 1076
327 1074
327 1076
327 1077
327 1078
328 1076
328 1077
328 1078
329 1075
329 1078
330 1077
330 1080
331 1079
331 1080
331 1081
332 1078
332 1079
334 1079
334 1080
334 1081
334 1083
335 1080
336 1083
336 1084
336 1085
337 1081
337 1082
337 1085
337 1086
338 1083
338 1084
338 1085
338 1088
339 1089
340 1088
340 1089
340 1091
341 1090
342 1089
342 1094
343 1090
343 1093
343 1094
343 1095
344 1090
344 1091
344 1094
345 1092
345 1094
345 1096
346 1096
347 1094
347 1097
347 1098
347 1101
348 1096
348 1099
348 1100
349 1097
349 1102
349 1103
350 1099
350 1103
350 1104
352 1102
352 1103
352 1104
352 1105
353 1104
354 1103
354 1104
354 1105
355 1103
355 1104
356 1104
356 1105
357 1104
358 1105
358 1107
359 1105
360 1106
360 1108
360 1110
361 1105
361 1107
361 1108
362 1109
362 1111
363 1108
363 1109
363 1111
363 1112
363 1113
363 1114
363 1115
364 1110
364 1114
364 1115
365 1113
365 1114
365 1115
366 1115
366 1117
366 1118
367 1116
367 1118
368 1116
368 1119
368 1120
368 1122
369 1119
369 1120
369 1122
370 1119
370 1121
370 1122
370 1123
371 1120
371 1122
371 1124
371 1125
372 1120
372 1124
372 1125
373 1121
373 1126
374 1122
374 1123
374 1124
374 1126
375 1125
375 1126
375 1128
376 1125
376 1126
377 1127
377 1128
378 1126
378 1129
378 1130
378 1131
379 1126
379 1128
379 1132
380 1128
380 1129
380 1131
380 1134
381 1131
381 1132
382 1131
382 1132
382 1136
383 1134
383 1135
383 1136
384 1133
384 1135
384 1136
385 1134
385 1135
385 1136
385 1138
385 1139
386 1135
386 1136
386 1137
386 1138
386 1139
387 1138
387 1140
387 1141
388 1137
388 1138
388 1139
388 1141
389 1138
389 1139
389 1140
389 1141
389 1143
389 1145
390 1145
390 1146
390 1148
390 1149
391 1144
391 1147
391 1149
391 1150
391 1151
392 1147
392 1148
392 1150
393 1149
393 1151
394 1150
394 1151
395 1149
395 1150
395 1152
395 1154
396 1149
396 1150
396 1154
397 1151
397 1154
398 1153
398 1156
398 1157
399 1155
399 1156
399 1157
400 1154
400 1156
400 1157
400 1159
401 1154
401 1158
402 1156
402 1157
402 1159
402 1160
403 1157
403 1158
403 1159
403 1160
403 1161
404 1161
404 1162
405 1165
405 1166
405 1167
405 1170
406 1170
406 1171
406 1173
407 1166
407 1167
407 1171
407 1172
407 1173
408 1167
408 1168
408 1169
408 1170
408 1172
408 1173
409 1171
409 1172
409 1177
410 1171
410 1173
410 1174
410 1175
410 1176
410 1177
410 1178
411 1173
411 1178
411 1179
412 1175
412 1178
412 1179
413 1176
413 1177
413 1178
413 1180
413 1181
414 1176
414 1177
414 1178
414 1179
414 1180
414 1181
415 1177
415 1180
415 1181
415 1182
416 1179
416 1180
416 1181
417 1183
418 1181
418 1182
419 1180
419 1182
420 1182
420 1183
420 1184
421 1182
422 1183
422 1184
423 1183
423 1185
423 1186
423 1187
424 1187
424 1188
424 1189
424 1190
425 1185
425 1186
425 1187
425 1188
425 1190
426 1186
426 1189
427 1191
427 1192
428 1187
428 1189
428 1190
428 1191
429 1188
429 1189
429 1190
429 1191
429 1192
430 1188
431 1189
431 1190
431 1191
432 1191
432 1193
432 1195
433 1191
433 1195
433 1196
434 1191
434 1193
435 1193
435 1196
436 1194
436 1196
436 1197
436 1198
437 1196
437 1197
437 1198
438 1195
438 1196
439 1198
440 1197
440 1198
440 1200
441 1199
441 1201
442 1198
442 1200
442 1201
443 1198
443 1199
444 1199
444 1201
445 1199
445 1201
446 1199
446 1200
446 1201
446 1202
447 1199
447 1200
447 1201
448 1199
448 1200
448 1203
449 1200
449 1201
449 1202
449 1203
449 1204
450 1203
450 1204
452 1202
452 1203
452 1205
453 1203
453 1205
454 1203
455 1203
456 1204
456 1205
457 1204
457 1205
457 1206
457 1207
457 1208
457 1209
458 1207
458 1208
459 1206
459 1207
459 1209
460 1209
460 1210
460 1213
461 1208
461 1215
461 1216
462 1213
462 1219
462 1220
463 1216
463 1217
463 1218
464 1217
465 1219
465 1220
465 1221
465 1224
466 1220
466 1225
467 1221
467 1222
467 1224
467 1225
468 1223
469 1223
469 1224
470 1223
470 1224
470 1226
470 1228
471 1225
471 1226
471 1227
472 1226
472 1227
472 1228
472 1229
473 1228
473 1229
473 1232
474 1230
474 1232
474 1234
475 1230
475 1232
475 1233
475 1234
476 1232
476 1233
476 1234
476 1235
476 1237
477 1232
477 1233
477 1236
478 1233
478 1235
478 1238
479 1236
479 1237
480 1237
480 1239
480 1240
481 1239
481 1240
481 1242
481 1243
481 1244
482 1245
483 1240
483 1242
483 1243
483 1244
483 1245
484 1241
484 1243
484 1245
484 1246
485 1242
485 1243
486 1245
486 1246
487 1244
487 1246
488 1245
488 1246
488 1247
489 1245
490 1246
490 1247
490 1248
491 1246
491 1249
492 1247
492 1248
493 1247
493 1249
494 1247
494 1249
494 1251
495 1250
495 1252
495 1255
496 1250
496 1254
496 1255
496 1256
496 1257
497 1251
497 1255
497 1256
497 1258
498 1255
498 1256
498 1257
498 1259
499 1254
499 1256
499 1257
499 1258
499 1260
500 1258
500 1261
501 1258
501 1259
501 1261
502 1260
502 1261
502 1262
503 1262
503 1263
504 1259
504 1261
504 1263
506 1261
506 1263
506 1264
506 1265
506 1266
507 1262
507 1263
507 1265
507 1266
508 1263
508 1267
509 1264
509 1266
509 1267
509 1268
510 1264
510 1265
510 1267
510 1268
511 1267
512 1267
513 1266
513 1267
514 1269
515 1269
516 1267
516 1269
517 1268
518 1269
518 1270
521 1269
521 1271
522 1270
522 1271
525 1270
526 1270
526 1271
527 1270
527 1271
529 1272
530 1272
535 1272
536 1272
537 1272
538 1273
539 1273
540 1274
540 1275
541 1273
542 1274
543 1273
544 1275
544 1278
545 1274
545 1277
545 1279
546 1276
547 1276
547 1278
547 1279
547 1280
548 1276
548 1277
548 1279
548 1281
549 1278
549 1280
549 1281
550 1281
551 1280
551 1281
552 1284
553 1281
553 1282
553 1284
553 1286
554 1281
554 1282
554 1283
554 1284
554 1287
555 1287
556 1284
556 1287
556 1288
557 1286
557 1288
558 1287
558 1288
559 1287
559 1289
559 1290
559 1291
560 1288
560 1289
561 1290
561 1291
562 1291
562 1292
563 1290
563 1292
564 1291
564 1292
564 1293
564 1294
565 1296
565 1297
566 1295
566 1297
567 1293
567 1295
567 1296
567 1297
567 1299
568 1297
568 1300
569 1295
569 1297
569 1300
569 1301
570 1296
570 1300
571 1303
572 1300
572 1303
572 1305
573 1301
573 1302
573 1303
573 1304
574 1301
574 1302
574 1304
575 1302
575 1303
575 1306
575 1307
576 1303
576 1305
576 1307
576 1309
577 1304
577 1305
577 1309
578 1310
578 1311
579 1310
579 1313
580 1309
580 1310
580 1312
581 1314
582 1313
582 1314
582 1315
582 1316
583 1312
584 1313
584 1314
584 1316
584 1317
585 1313
586 1316
586 1320
587 1317
587 1318
587 1320
587 1321
587 1324
588 1324
588 1326
589 1326
590 1323
590 1324
590 1325
590 1326
590 1329
590 1330
591 1324
591 1327
591 1328
591 1329
592 1324
592 1326
593 1327
593 1328
593 1330
593 1331
594 1329
594 1330
594 1332
595 1328
595 1329
595 1331
595 1332
595 1333
596 1330
596 1331
596 1332
597 1331
597 1333
598 1333
598 1334
598 1335
599 1331
599 1332
599 1334
600 1333
600 1334
600 1335
601 1334
601 1335
601 1338
602 1334
602 1339
603 1334
603 1338
604 1335
605 1339
605 1340
606 1343
607 1337
607 1341
608 1342
608 1344
609 1342
609 1344
609 1345
609 1346
610 1345
610 1346
611 1342
611 1344
611 1345
611 1347
612 1343
612 1346
612 1347
613 1344
613 1345
613 1350
614 1345
614 1348
614 1349
614 1351
615 1347
615 1350
615 1351
616 1349
616 1352
616 1353
616 1354
616 1355
617 1351
617 1352
617 1353
617 1356
618 1352
618 1354
618 1355
618 1357
619 1354
619 1358
620 1354
620 1357
620 1358
620 1359
620 1360
620 1361
621 1363
621 1366
623 1365
623 1366
623 1367
623 1368
623 1369
624 1367
627 1368
627 1372
628 1368
628 1369
628 1374
629 1369
629 1373
629 1374
630 1371
630 1372
630 1374
630 1375
630 1376
631 1372
631 1373
631 1376
631 1377
632 1372
632 1376
632 1378
632 1379
633 1375
633 1376
633 1378
633 1381
634 1375
634 1376
634 1379
635 1380
636 1378
637 1384
637 1385
638 1381
638 1382
638 1384
639 1382
639 1383
639 1386
640 1383
640 1385
640 1386
641 1382
641 1385
642 1386
643 1386
643 1389
643 1390
644 1385
644 1387
644 1388
644 1391
645 1388
645 1389
645 1390
646 1389
646 1390
646 1391
646 1393
647 1389
647 1390
647 1392
647 1393
647 1395
648 1389
648 1391
648 1394
648 1395
649 1393
649 1397
650 1393
650 1395
650 1396
650 1398
651 1393
651 1394
651 1395
651 1396
651 1398
652 1394
652 1395
652 1399
653 1397
653 1399
653 1400
654 1397
654 1398
654 1399
655 1400
656 1401
657 1403
657 1404
658 1402
658 1403
658 1406
659 1402
659 1406
660 1405
660 1406
660 1407
660 1408
660 1409
661 1404
661 1405
661 1406
661 1407
661 1408
662 1408
662 1409
663 1407
663 1409
663 1411
664 1407
664 1408
664 1409
664 1410
665 1409
665 1412
665 1413
666 1408
666 1410
666 1411
666 1412
667 1409
667 1410
667 1411
667 1412
667 1413
668 1412
668 1413
668 1415
669 1412
670 1411
670 1414
671 1413
671 1415
671 1416
672 1415
672 1417
673 1415
673 1416
673 1417
674 1415
674 1417
676 1417
677 1416
678 1416
678 1418
679 1417
679 1418
680 1419
681 1418
683 1418
684 1418
684 1421
685 1418
685 1419
685 1421
686 1419
686 1420
686 1421
686 1422
687 1418
687 1422
688 1423
689 1424
690 1421
691 1424
691 1425
691 1426
692 1423
692 1426
693 1423
693 1424
693 1425
693 1427
694 1423
694 1424
694 1425
694 1426
697 1425
697 1427
698 1428
698 1430
699 1428
700 1428
700 1430
700 1431
700 1432
700 1433
701 1430
701 1431
701 1432
701 1435
702 1430
702 1435
702 1436
703 1434
703 1437
703 1438
703 1439
704 1436
704 1438
704 1440
705 1434
705 1438
705 1441
705 1442
706 1440
706 1442
706 1443
706 1444
706 1446
707 1446
708 1444
708 1445
709 1444
710 1445
710 1446
712 1447
713 1446
713 1448
714 1446
714 1447
714 1448
714 1449
715 1447
716 1447
716 1448
716 1449
716 1451
717 1447
717 1449
718 1455
719 1452
719 1453
719 1454
719 1455
719 1456
720 1452
720 1453
720 1454
720 1456
720 1457
720 1458
721 1452
721 1453
721 1455
721 1456
721 1457
721 1458
722 1456
722 1458
722 1459
723 1456
723 1457
723 1458
723 1459
724 1457
726 1458
726 1459
727 1459
727 1460
728 1459
728 1460
728 1461
729 1459
729 1460
729 1461
730 1460
731 1463
732 1460
732 1461
732 1462
732 1463
732 1464
733 1462
733 1463
734 1461
735 1463
736 1462
736 1466
737 1463
737 1466
737 1467
738 1464
738 1466
738 1469
739 1464
739 1466
740 1466
740 1470